NAME          
ROWS
 N  OBJ
 L  c1
 L  c2
 L  c3
COLUMNS
    MARKER    'MARKER'                 'INTORG'
    x[1]      c1        653
    x[1]      c2        668
    x[1]      c3        920
    x[1]      OBJ       -603
    x[2]      c1        652
    x[2]      c2        905
    x[2]      c3        603
    x[2]      OBJ       -386
    x[3]      c1        15
    x[3]      c2        354
    x[3]      c3        243
    x[3]      OBJ       -66
    x[4]      c1        589
    x[4]      c2        607
    x[4]      c3        362
    x[4]      OBJ       -36
    x[5]      c1        143
    x[5]      c2        416
    x[5]      c3        754
    x[5]      OBJ       -34
    x[6]      c1        745
    x[6]      c2        843
    x[6]      c3        485
    x[6]      OBJ       -951
    x[7]      c1        22
    x[7]      c2        166
    x[7]      c3        134
    x[7]      OBJ       -422
    x[8]      c1        420
    x[8]      c2        606
    x[8]      c3        652
    x[8]      OBJ       -679
    x[9]      c1        248
    x[9]      c2        174
    x[9]      c3        509
    x[9]      OBJ       -839
    x[10]     c1        463
    x[10]     c2        513
    x[10]     c3        256
    x[10]     OBJ       -942
    x[11]     c1        384
    x[11]     c2        764
    x[11]     c3        343
    x[11]     OBJ       -759
    x[12]     c1        998
    x[12]     c2        98
    x[12]     c3        324
    x[12]     OBJ       -5
    x[13]     c1        780
    x[13]     c2        646
    x[13]     c3        435
    x[13]     OBJ       -939
    x[14]     c1        47
    x[14]     c2        452
    x[14]     c3        801
    x[14]     OBJ       -756
    x[15]     c1        609
    x[15]     c2        334
    x[15]     c3        280
    x[15]     OBJ       -226
    x[16]     c1        914
    x[16]     c2        385
    x[16]     c3        428
    x[16]     OBJ       -546
    x[17]     c1        655
    x[17]     c2        878
    x[17]     c3        573
    x[17]     OBJ       -637
    x[18]     c1        464
    x[18]     c2        703
    x[18]     c3        134
    x[18]     OBJ       -351
    x[19]     c1        966
    x[19]     c2        166
    x[19]     c3        905
    x[19]     OBJ       -502
    x[20]     c1        733
    x[20]     c2        662
    x[20]     c3        64
    x[20]     OBJ       -515
    x[21]     c1        174
    x[21]     c2        43
    x[21]     c3        94
    x[21]     OBJ       -569
    x[22]     c1        120
    x[22]     c2        195
    x[22]     c3        632
    x[22]     OBJ       -145
    x[23]     c1        572
    x[23]     c2        328
    x[23]     c3        436
    x[23]     OBJ       -539
    x[24]     c1        564
    x[24]     c2        93
    x[24]     c3        218
    x[24]     OBJ       -911
    x[25]     c1        977
    x[25]     c2        632
    x[25]     c3        378
    x[25]     OBJ       -436
    x[26]     c1        43
    x[26]     c2        941
    x[26]     c3        75
    x[26]     OBJ       -796
    x[27]     c1        870
    x[27]     c2        787
    x[27]     c3        207
    x[27]     OBJ       -425
    x[28]     c1        579
    x[28]     c2        192
    x[28]     c3        105
    x[28]     OBJ       -126
    x[29]     c1        853
    x[29]     c2        767
    x[29]     c3        315
    x[29]     OBJ       -69
    x[30]     c1        355
    x[30]     c2        398
    x[30]     c3        247
    x[30]     OBJ       -846
RHS
    rhs       c1        7804
    rhs       c2        7358
    rhs       c3        5956
RANGES
BOUNDS
 LO bounds    x[1]      0
 PL bounds    x[1]
 LO bounds    x[2]      0
 PL bounds    x[2]
 LO bounds    x[3]      0
 PL bounds    x[3]
 LO bounds    x[4]      0
 PL bounds    x[4]
 LO bounds    x[5]      0
 PL bounds    x[5]
 LO bounds    x[6]      0
 PL bounds    x[6]
 LO bounds    x[7]      0
 PL bounds    x[7]
 LO bounds    x[8]      0
 PL bounds    x[8]
 LO bounds    x[9]      0
 PL bounds    x[9]
 LO bounds    x[10]     0
 PL bounds    x[10]
 LO bounds    x[11]     0
 PL bounds    x[11]
 LO bounds    x[12]     0
 PL bounds    x[12]
 LO bounds    x[13]     0
 PL bounds    x[13]
 LO bounds    x[14]     0
 PL bounds    x[14]
 LO bounds    x[15]     0
 PL bounds    x[15]
 LO bounds    x[16]     0
 PL bounds    x[16]
 LO bounds    x[17]     0
 PL bounds    x[17]
 LO bounds    x[18]     0
 PL bounds    x[18]
 LO bounds    x[19]     0
 PL bounds    x[19]
 LO bounds    x[20]     0
 PL bounds    x[20]
 LO bounds    x[21]     0
 PL bounds    x[21]
 LO bounds    x[22]     0
 PL bounds    x[22]
 LO bounds    x[23]     0
 PL bounds    x[23]
 LO bounds    x[24]     0
 PL bounds    x[24]
 LO bounds    x[25]     0
 PL bounds    x[25]
 LO bounds    x[26]     0
 PL bounds    x[26]
 LO bounds    x[27]     0
 PL bounds    x[27]
 LO bounds    x[28]     0
 PL bounds    x[28]
 LO bounds    x[29]     0
 PL bounds    x[29]
 LO bounds    x[30]     0
 PL bounds    x[30]
ENDATA
